%%%mzn-stat: initTime=0.009575425
%%%mzn-stat: objective=252
%%%mzn-stat: nodes=587
%%%mzn-stat: restarts=0
%%%mzn-stat: peakDepth=305
%%%mzn-stat: solveTime=0.057614152
%%%mzn-stat: variables=1028
%%%mzn-stat: propagators=753
%%%mzn-stat: failures=257
%%%mzn-stat: propagations=110189
%%%mzn-stat: nogoods=257
%%%mzn-stat: AverageConflictSize=2.3540856031128405
%%%mzn-stat: NumUnitNogoodsLearned=251
%%%mzn-stat: AverageLearnedNogoodLength=2.0505836575875485
%%%mzn-stat: AverageBacktrackAmount=0
%%%mzn-stat: AverageLbd=1.2256809338521402
%%%mzn-stat-end
maxleg = 252;
succ = array1d(1..50,[47, 36, 28, 3, 24, 43, 1, 42, 29, 21, 32, 31, 50, 16, 44, 49, 4, 13, 40, 38, 30, 6, 7, 14, 22, 41, 12, 11, 37, 23, 2, 45, 15, 27, 34, 10, 39, 25, 5, 17, 9, 19, 18, 26, 35, 33, 20, 8, 48, 46]);
% time elapsed: 5.88 s
----------
==========
% time elapsed: 5.88 s
%%%mzn-stat: initTime=0.009575425
%%%mzn-stat: objective=252
%%%mzn-stat: nodes=587
%%%mzn-stat: restarts=0
%%%mzn-stat: peakDepth=305
%%%mzn-stat: solveTime=0.057620095
%%%mzn-stat: variables=1028
%%%mzn-stat: propagators=753
%%%mzn-stat: failures=257
%%%mzn-stat: propagations=110189
%%%mzn-stat: nogoods=257
%%%mzn-stat: AverageConflictSize=2.3540856031128405
%%%mzn-stat: NumUnitNogoodsLearned=251
%%%mzn-stat: AverageLearnedNogoodLength=2.0505836575875485
%%%mzn-stat: AverageBacktrackAmount=0
%%%mzn-stat: AverageLbd=1.2256809338521402
%%%mzn-stat-end
